1000 100
327 342
372 455
471 235
411 414
160 190
309 299
149 423
300 208
330 164
392 45
277 287
158 390
302 268
173 21
219 38
45 104
374 301
361 235
373 233
160 252
111 389
148 402
154 398
281 152
329 29
10 269
82 128
428 403
386 58
161 298
426 86
397 109
100 137
180 379
93 383
483 233
390 390
183 314
441 116
444 217
40 15
24 61
271 198
256 299
181 334
260 106
80 104
105 482
473 476
48 439
67 23
226 122
249 346
222 111
200 142
22 367
144 241
318 254
68 106
346 70
427 398
37 34
419 11
133 158
339 113
359 391
189 185
41 77
374 22
420 360
304 465
338 336
435 284
132 419
25 279
37 497
456 373
302 418
368 458
203 300
71 7
175 3
66 446
288 454
304 342
64 385
153 7
124 180
259 45
453 154
74 67
161 117
363 193
57 495
245 393
290 421
473 219
157 268
402 232
41 151
